words_hard_train/8476.qaiger
aag 33 15 0 1 18
2
4
8
10
14
20
22
26
32
34
38
40
48
50
62
67
6 3 5
12 9 11
16 13 15
18 6 17
24 21 23
28 24 27
30 18 28
36 33 35
42 39 41
44 36 42
46 30 44
52 49 51
54 47 52
56 12 14
58 54 57
60 56 53
64 61 62
66 59 65
i0 1 x1[2]
i1 2 y2[2]
i2 1 x1[6]
i3 2 y2[6]
i4 2 y2[0]
i5 1 x1[3]
i6 2 y2[4]
i7 1 x1[1]
i8 1 x1[5]
i9 2 y2[5]
i10 2 y2[3]
i11 1 x1[4]
i12 1 x1[7]
i13 2 y2[7]
i14 2 y2[1]
o0 bv[0]
c
simplified
  >
    or
      2 y2
      1 x1
    add
      << 6
        2 y2
      1
