words_hard_train/8476.qaiger.qdimacs
p cnf 33 55
a 1 4 10 13 16 20 24 0
e 2 3 5 6 7 8 9 11 12 14 15 17 18 19 21 22 23 25 26 27 28 29 30 31 32 33 0
1 2 3 0
-1 -3 0
-2 -3 0
4 5 6 0
-4 -6 0
-5 -6 0
6 7 8 0
-6 -8 0
-7 -8 0
-3 8 9 0
3 -9 0
-8 -9 0
10 11 12 0
-10 -12 0
-11 -12 0
-12 13 14 0
12 -14 0
-13 -14 0
-9 -14 15 0
9 -15 0
14 -15 0
16 17 18 0
-16 -18 0
-17 -18 0
19 20 21 0
-19 -21 0
-20 -21 0
-18 -21 22 0
18 -22 0
21 -22 0
-15 -22 23 0
15 -23 0
22 -23 0
24 25 26 0
-24 -26 0
-25 -26 0
23 -26 27 0
-23 -27 0
26 -27 0
-6 -7 28 0
6 -28 0
7 -28 0
-27 28 29 0
27 -29 0
-28 -29 0
-28 26 30 0
28 -30 0
-26 -30 0
30 -31 32 0
-30 -32 0
31 -32 0
29 32 33 0
-29 -33 0
-32 -33 0
-33 0
